0000000000000000
0000000000000000
0001110000000000
0001111110100000
0001111111100000
0000000001100000
0000000001100000
0000000000100000
0000000000100000
0000000001100000
0000000001110000
0000000011000000
0001111111100000
0000000001000000
0000000000000000
0000000000000000
